Pd   O    H                             
   1.00000000000000     
     8.3526655630083102    0.0001048005685294    0.0305822628123546
     0.0000733364386605    8.3385004641564837   -0.0586931704166453
     0.0778406925146143   -0.1484306519371676   20.0849230917575916
       Ru   Cl
        1     3
Selective dynamics
Direct
  0.9766895060515774  0.0780976286399686  0.2922937645537609   T   T   T
  0.9736008501525010  0.2815761744045853  0.3735162299540499   T   T   T
  0.7941921072667959  0.9720766368181027  0.3746823537894536   T   T   T
  0.1571878686170682  0.9747702033540172  0.3747377902547792   T   T   T
