C3H8                                    
   15.0000000000000     
     1.0000000000000000    0.0000000000000000    0.0000000000000000
     0.0000000000000000    1.0000000000000000    0.0000000000000000
     0.0000000000000000    0.0000000000000000    1.0000000000000000
   C    H 
     1     1
Selective dynamics
Direct
  0.4999999999855428  0.5010717842156520  0.5016071092667490   T   T   T
  0.5000000000144572  0.4589282157843487  0.4383928907332487   T   T   T
 
  0.00000000E+00  0.00000000E+00  0.00000000E+00
  0.00000000E+00  0.00000000E+00  0.00000000E+00
