C3H8
15.0
        1.0000000000         0.0000000000         0.0000000000
        0.0000000000         1.0000000000         0.0000000000
        0.0000000000         0.0000000000         1.0000000000
    C    H
    1    1
Selective dynamics
Direct
0.50 	0.50 	0.50 T T T
0.50 	0.46 	0.44 T T T

