C3H8                                    
   15.0000000000000     
     1.0000000000000000    0.0000000000000000    0.0000000000000000
     0.0000000000000000    1.0000000000000000    0.0000000000000000
     0.0000000000000000    0.0000000000000000    1.0000000000000000
   C    H 
     3     7
Selective dynamics
Direct
  0.4130396503353519  0.5588007267528408  0.5000000035007865   T   T   T
  0.5013460091731770  0.5057842758532934  0.5000000029373518   T   T   T
  0.5815722044739077  0.5640221874159382  0.4999999945923342   T   T   T
  0.4084947509733640  0.6017745377088379  0.4407477681255300   T   T   T
  0.4084947493723058  0.6017745400913312  0.5592522367772208   T   T   T
  0.3553590863665792  0.5134235214054906  0.5000000024133314   T   T   T
  0.5021073974483888  0.4619072642715548  0.4409831294576512   T   T   T
  0.5021074035882721  0.4619072693436498  0.5590168815883811   T   T   T
  0.6087393681599292  0.5903028340642503  0.4378033585189811   T   T   T
  0.6087393801087393  0.5903028430928228  0.5621966220884321   T   T   T
 
  0.00000000E+00  0.00000000E+00  0.00000000E+00
  0.00000000E+00  0.00000000E+00  0.00000000E+00
  0.00000000E+00  0.00000000E+00  0.00000000E+00
  0.00000000E+00  0.00000000E+00  0.00000000E+00
  0.00000000E+00  0.00000000E+00  0.00000000E+00
  0.00000000E+00  0.00000000E+00  0.00000000E+00
  0.00000000E+00  0.00000000E+00  0.00000000E+00
  0.00000000E+00  0.00000000E+00  0.00000000E+00
  0.00000000E+00  0.00000000E+00  0.00000000E+00
  0.00000000E+00  0.00000000E+00  0.00000000E+00
