C3H8
15.0
        1.0000000000         0.0000000000         0.0000000000
        0.0000000000         1.0000000000         0.0000000000
        0.0000000000         0.0000000000         1.0000000000
    C    H
    3    7
Selective dynamics
Direct
0.42 	0.56 	0.50 T T T
0.50 	0.50 	0.50 T T T
0.59 	0.55 	0.50 T T T
0.42 	0.60 	0.44 T T T
0.42 	0.60 	0.56 T T T
0.36 	0.52 	0.50 T T T
0.50 	0.46 	0.44 T T T
0.50 	0.46 	0.56 T T T
0.59 	0.60 	0.44 T T T
0.59 	0.60 	0.56 T T T

