Pd   O    H                             
   1.00000000000000     
     9.0969733686154637    0.0018015779997474    0.0104430046661799
     0.0012736408005404    9.1401432199721864    0.0329892848117934
     0.0690819633425873    0.0653440033297262   16.7911107351507098
   Ru   Cl   N 
     1     3     1
Selective dynamics
Direct
  0.9752818198708931  0.0764247844724652  0.3185874449481351   T   T   T
  0.9737315744506996  0.3035632486124839  0.3681752536492688   T   T   T
  0.7776831058098174  0.9614014708591188  0.3692700521952106   T   T   T
  0.1739298057836318  0.9642669094651931  0.3688240053729460   T   T   T
  0.9768978433677851  0.0777320936653951  0.2218504970907632   T   T   T
 
  0.00000000E+00  0.00000000E+00  0.00000000E+00
  0.00000000E+00  0.00000000E+00  0.00000000E+00
  0.00000000E+00  0.00000000E+00  0.00000000E+00
  0.00000000E+00  0.00000000E+00  0.00000000E+00
  0.00000000E+00  0.00000000E+00  0.00000000E+00
