Pd   O    H                             
   1.00000000000000     
     9.2232551090623733   -0.0021236655535528    0.0354092812579770
    -0.0026079122086559    9.2661482818932939    0.0524492008129340
     0.1161534337016382    0.1052338397203815   15.6023844023325520
   Ru   Cl N
     1     3 1
Selective dynamics
Direct
  0.9758538171948785  0.0768678638579831  0.3314771147042859   T   T   T
  0.9738081419083399  0.3043895089465712  0.3609353344041667   T   T   T
  0.7773867375302965  0.9612496278297114  0.3613692031737499   T   T   T
  0.1746216354544240  0.9640136425824062  0.3614484862698380   T   T   T
  0.9758538171948785  0.0768678638579831  0.2314771147042859   T   T   T
 
  0.00000000E+00  0.00000000E+00  0.00000000E+00
  0.00000000E+00  0.00000000E+00  0.00000000E+00
  0.00000000E+00  0.00000000E+00  0.00000000E+00
  0.00000000E+00  0.00000000E+00  0.00000000E+00
