CONTCAR                                 
   1.00000000000000     
    15.0000000000000000    0.0000000000000000    0.0000000000000000
     0.0000000000000000   15.0000000000000000    0.0000000000000000
     0.0000000000000000    0.0000000000000000   15.0000000000000000
   H    O 
     1     2
Direct
  0.6240623919976297  0.5470287417965446  0.4911031695706135
  0.5102176852169233  0.5012206945567890  0.5119633276291896
  0.5913365456520789  0.4919481360585152  0.4746703627924593
 
  0.00000000E+00  0.00000000E+00  0.00000000E+00
  0.00000000E+00  0.00000000E+00  0.00000000E+00
  0.00000000E+00  0.00000000E+00  0.00000000E+00
