CONTCAR                                 
   1.00000000000000     
    15.0000000000000000    0.0000000000000000    0.0000000000000000
     0.0000000000000000   15.0000000000000000    0.0000000000000000
     0.0000000000000000    0.0000000000000000   15.0000000000000000
   H    O 
     1     2
Direct
  0.6234335480127513  0.5470247140596136  0.4913461600259102
  0.5069860105214639  0.5020280318165885  0.5136951625277886
  0.5951970643324150  0.4911448265356487  0.4726955374385641
 
  0.00000000E+00  0.00000000E+00  0.00000000E+00
  0.00000000E+00  0.00000000E+00  0.00000000E+00
  0.00000000E+00  0.00000000E+00  0.00000000E+00
  0.00000000E+00  0.00000000E+00  0.00000000E+00
