 H                                      
   1.00000000000000     
    15.0000000000000000    0.0000000000000000    0.0000000000000000
     0.0000000000000000   15.0000000000000000    0.0000000000000000
     0.0000000000000000    0.0000000000000000   15.0000000000000000
   Br
     2
Direct
  0.4999523055764601  0.4999674228107490  0.4444771091993090
  0.4984946903207725  0.4990034583623232  0.5981570077787480
 
  0.00000000E+00  0.00000000E+00  0.00000000E+00
  0.00000000E+00  0.00000000E+00  0.00000000E+00
