 H 
 1.0000000000000000
    15.0000000000000000    0.0000000000000000    0.0000000000000000
     0.0000000000000000   15.0000000000000000    0.0000000000000000
     0.0000000000000000    0.0000000000000000   15.0000000000000000
 Br 
 2
Cartesian
  7.4999991668209276  7.5000001216367806  6.5944863079106492
  7.4767057716376044  7.4845630959593166  9.0450254467602065
