Nitrogen                                
   1.00000000000000     
    15.0000000000000000    0.0000000000000000    0.0000000000000000
     0.0000000000000000   15.0000000000000000    0.0000000000000000
     0.0000000000000000    0.0000000000000000   15.0000000000000000
   N 
     2
Direct
  0.4999999968440434  0.4999999982336175  0.6564996148583805
  0.5000000031559566  0.5000000017663825  0.3573670518082847
 
  0.00000000E+00  0.00000000E+00  0.00000000E+00
  0.00000000E+00  0.00000000E+00  0.00000000E+00
