Nitrogen                                
   1.00000000000000     
    15.0000000000000000    0.0000000000000000    0.0000000000000000
     0.0000000000000000   15.0000000000000000    0.0000000000000000
     0.0000000000000000    0.0000000000000000   15.0000000000000000
   N 
     2
Direct
  0.4999999993475664  0.5000000008800033  0.4597974755072541
  0.5000000006524334  0.4999999991199967  0.5540691911594111
  

