 H  O 
 1.0000000000000000
    15.0000000000000000    0.0000000000000000    0.0000000000000000
     0.0000000000000000   15.0000000000000000    0.0000000000000000
     0.0000000000000000    0.0000000000000000   15.0000000000000000
   H  O
   2   2
Cartesian
  7.0496009420005548  7.6036871488222033  6.9009475051159717
  9.3515032201912689  8.2053707108942042  7.3701924003886532
  7.6047901578219577  7.5304204772488275  7.7054274379168284
  8.9279559649862250  7.3671723980347306  7.0904330615784614
