oxygen                                  
   1.00000000000000     
    15.0000000000000000    0.0000000000000000    0.0000000000000000
     0.0000000000000000   15.0000000000000000    0.0000000000000000
     0.0000000000000000    0.0000000000000000   15.0000000000000000
   O 
     3
Direct
  0.5006013619793277  0.5000000008800001  0.4649596979924760
  0.4987614146544667  0.4999999991199999  0.5505676922856739
  0.5766852233662058  0.5000000000000000  0.4257222763885141
 
  0.00000000E+00  0.00000000E+00  0.00000000E+00
  0.00000000E+00  0.00000000E+00  0.00000000E+00
  0.00000000E+00  0.00000000E+00  0.00000000E+00
