oxygen                                  
   1.00000000000000     
    15.0000000000000000    0.0000000000000000    0.0000000000000000
     0.0000000000000000   15.0000000000000000    0.0000000000000000
     0.0000000000000000    0.0000000000000000   15.0000000000000000
   O 
     3
Direct
  0.4999999993475664  0.5000000008800033  0.4657974755072541
  0.5000000006524334  0.4999999991199967  0.5480691911594111
  0.576048 0.5 0.427383
  0.00000000E+00  0.00000000E+00  0.00000000E+00
  0.00000000E+00  0.00000000E+00  0.00000000E+00
