
15.0
        1.0000000000         0.0000000000         0.0000000000
        0.0000000000         1.0000000000         0.0000000000
        0.0000000000         0.0000000000         1.0000000000
    C 
    1
Selective dynamics
Direct
0.50 	0.50 	0.50 T T T

