 H                                      
   1.00000000000000     
    15.0000000000000000    0.0000000000000000    0.0000000000000000
     0.0000000000000000   15.0000000000000000    0.0000000000000000
     0.0000000000000000    0.0000000000000000   15.0000000000000000
   Br
     1
Direct
  0.4999999444547285  0.5000000081091187  0.4396324205273743
 
  0.00000000E+00  0.00000000E+00  0.00000000E+00
