C3H8                                    
   15.0000000000000     
     1.0000000000000000    0.0000000000000000    0.0000000000000000
     0.0000000000000000    1.0000000000000000    0.0000000000000000
     0.0000000000000000    0.0000000000000000    1.0000000000000000
   C    H 
     1     4
Selective dynamics
Direct
  0.5000000073776641  0.5000000661724502  0.5000000045401561   T   T   T
  0.4999999995823156  0.4578158930673468  0.4402532051451143   T   T   T
  0.4999999998774752  0.4578158860901331  0.5597467904485673   T   T   T
  0.4402532269494654  0.5421840799666986  0.4999999999800909   T   T   T
  0.5597467662130797  0.5421840747033714  0.4999999998860712   T   T   T
 
  0.00000000E+00  0.00000000E+00  0.00000000E+00
  0.00000000E+00  0.00000000E+00  0.00000000E+00
  0.00000000E+00  0.00000000E+00  0.00000000E+00
  0.00000000E+00  0.00000000E+00  0.00000000E+00
  0.00000000E+00  0.00000000E+00  0.00000000E+00
