Pd   O    H                             
   1.00000000000000     
     9.2232551090623733   -0.0021236655535528    0.0354092812579770
    -0.0026079122086559    9.2661482818932939    0.0524492008129340
     0.1161534337016382    0.1052338397203815   15.6023844023325520
   Ru   Cl
     1     1
Selective dynamics
Direct
  0.9758541427358061  0.0768341188163719  0.3314726852267585   T   T   T
  0.9738078163674182  0.3044232539881832  0.3609397638816941   T   T   T
 
  0.00000000E+00  0.00000000E+00  0.00000000E+00
  0.00000000E+00  0.00000000E+00  0.00000000E+00
