C3H8                                    
   15.0000000000000     
     1.0000000000000000    0.0000000000000000    0.0000000000000000
     0.0000000000000000    1.0000000000000000    0.0000000000000000
     0.0000000000000000    0.0000000000000000    1.0000000000000000
   C    H 
     3     7
Selective dynamics
Direct
  0.4171719631734758  0.5602746332199929  0.4978200768635316   T   T   T
  0.5018009453708032  0.5104011398348230  0.4846475929250829   T   T   T
  0.5893234660530063  0.5549036026459963  0.4977489957272211   T   T   T
  0.4049735100714301  0.6091871828934411  0.4435294856003097   T   T   T
  0.4186234619803281  0.5997077985867605  0.5600455994363162   T   T   T
  0.3586509219282297  0.5161354993722618  0.5001705959778385   T   T   T
  0.4997941182551023  0.4450460317061941  0.4526244355542774   T   T   T
  0.6044932312940463  0.6029335719959225  0.4434909186666174   T   T   T
  0.6448436738586156  0.5071410519216873  0.4999755900566702   T   T   T
  0.5903247080149788  0.5942694878229279  0.5599467091921321   T   T   T
 
  0.00000000E+00  0.00000000E+00  0.00000000E+00
  0.00000000E+00  0.00000000E+00  0.00000000E+00
  0.00000000E+00  0.00000000E+00  0.00000000E+00
  0.00000000E+00  0.00000000E+00  0.00000000E+00
  0.00000000E+00  0.00000000E+00  0.00000000E+00
  0.00000000E+00  0.00000000E+00  0.00000000E+00
  0.00000000E+00  0.00000000E+00  0.00000000E+00
  0.00000000E+00  0.00000000E+00  0.00000000E+00
  0.00000000E+00  0.00000000E+00  0.00000000E+00
  0.00000000E+00  0.00000000E+00  0.00000000E+00
