C3H8                                    
   15.0000000000000     
     1.0000000000000000    0.0000000000000000    0.0000000000000000
     0.0000000000000000    1.0000000000000000    0.0000000000000000
     0.0000000000000000    0.0000000000000000    1.0000000000000000
   C    H 
     1     2
Selective dynamics
Direct
  0.4999999987957330  0.4917292435405210  0.5000000039973127   T   T   T
  0.5000000006987857  0.4641353744201257  0.4330556415721089   T   T   T
  0.5000000005054811  0.4641353820393551  0.5669443544305783   T   T   T
 
  0.00000000E+00  0.00000000E+00  0.00000000E+00
  0.00000000E+00  0.00000000E+00  0.00000000E+00
  0.00000000E+00  0.00000000E+00  0.00000000E+00
