 C5  H                                  
   1.00000000000000     
    15.0000000000000000    0.0000000000000000    0.0000000000000000
     0.0000000000000000   15.0000000000000000    0.0000000000000000
     0.0000000000000000    0.0000000000000000   15.0000000000000000
   C    H 
     2     6
Direct
  0.3333332276929797  0.3333346985709728  0.3842189876278093
  0.3333326104725904  0.3333320263652239  0.2824478423472723
  0.3333347410968214  0.4016780933986706  0.4108414239877937
  0.2741468904822026  0.2991612449585617  0.4108421003370357
  0.3925195395298549  0.2991615249991537  0.4108423558918824
  0.3333344693586325  0.2649898844370216  0.2558255254664579
  0.2741460305406246  0.3675041597853572  0.2558240668311247
  0.3925191574929653  0.3675050341517099  0.2558243641773023
 
  0.00000000E+00  0.00000000E+00  0.00000000E+00
  0.00000000E+00  0.00000000E+00  0.00000000E+00
  0.00000000E+00  0.00000000E+00  0.00000000E+00
  0.00000000E+00  0.00000000E+00  0.00000000E+00
  0.00000000E+00  0.00000000E+00  0.00000000E+00
  0.00000000E+00  0.00000000E+00  0.00000000E+00
  0.00000000E+00  0.00000000E+00  0.00000000E+00
  0.00000000E+00  0.00000000E+00  0.00000000E+00
