C3H8                                    
   15.0000000000000     
     1.0000000000000000    0.0000000000000000    0.0000000000000000
     0.0000000000000000    1.0000000000000000    0.0000000000000000
     0.0000000000000000    0.0000000000000000    1.0000000000000000
   C    H 
     2     5
Selective dynamics
Direct
  0.4173836960873903  0.5585423205184205  0.5000000012459498   T   T   T
  0.4883381252521689  0.4897006430181680  0.4999999973560057   T   T   T
  0.4204540242350869  0.6012963237133780  0.4403901592165709   T   T   T
  0.4204540261269383  0.6012963232951160  0.5596098415392510   T   T   T
  0.3497342851896062  0.5284952153230972  0.5000000007254475   T   T   T
  0.5118179196655140  0.4603345884031331  0.4378063952023392   T   T   T
  0.5118179234432999  0.4603345857286968  0.5621936047144359   T   T   T
 
  0.00000000E+00  0.00000000E+00  0.00000000E+00
  0.00000000E+00  0.00000000E+00  0.00000000E+00
  0.00000000E+00  0.00000000E+00  0.00000000E+00
  0.00000000E+00  0.00000000E+00  0.00000000E+00
  0.00000000E+00  0.00000000E+00  0.00000000E+00
  0.00000000E+00  0.00000000E+00  0.00000000E+00
  0.00000000E+00  0.00000000E+00  0.00000000E+00
