C3H8                                    
   15.0000000000000     
     1.0000000000000000    0.0000000000000000    0.0000000000000000
     0.0000000000000000    1.0000000000000000    0.0000000000000000
     0.0000000000000000    0.0000000000000000    1.0000000000000000
   C    H 
     1     3
Selective dynamics
Direct
  0.4849993225602515  0.4899950996092091  0.4999999998265328   T   T   T
  0.5066667271967010  0.4609442057225499  0.4371952598878703   T   T   T
  0.5066667271226116  0.4609442064404650  0.5628047395321409   T   T   T
  0.4416672231204333  0.5481164882277771  0.5000000007534559   T   T   T
 
  0.00000000E+00  0.00000000E+00  0.00000000E+00
  0.00000000E+00  0.00000000E+00  0.00000000E+00
  0.00000000E+00  0.00000000E+00  0.00000000E+00
  0.00000000E+00  0.00000000E+00  0.00000000E+00
