Pd   O    H                             
   1.00000000000000     
     9.4812057265928473   -0.0007281418448164    0.0333212116356194
    -0.0010439807321098    9.5652446204983370    0.0022065321217151
     0.1112284314999144    0.0576339227113561   15.7875535490887771
   Ru   Br
     1     3
Selective dynamics
Direct
  0.9759420124443068  0.0770263774578197  0.3253508070458366   T   T   T
  0.9735515692670660  0.3097776982032059  0.3630945635948706   T   T   T
  0.7730291574534078  0.9583767369925695  0.3633387611720309   T   T   T
  0.1791475929231581  0.9613398305630767  0.3634460067393022   T   T   T
 
  0.00000000E+00  0.00000000E+00  0.00000000E+00
  0.00000000E+00  0.00000000E+00  0.00000000E+00
  0.00000000E+00  0.00000000E+00  0.00000000E+00
  0.00000000E+00  0.00000000E+00  0.00000000E+00
