h2o                                     
   1.00000000000000     
    15.0000000000000000    0.0000000000000000    0.0000000000000000
     0.0000000000000000   15.0000000000000000    0.0000000000000000
     0.0000000000000000    0.0000000000000000   15.0000000000000000
   H    O 
     1     1
Direct
  0.5516724927732634  0.4999999972902183  0.4631146431281154
  0.4995836411218524  0.5000000027097816  0.5034486018990804
 
  0.00000000E+00  0.00000000E+00  0.00000000E+00
  0.00000000E+00  0.00000000E+00  0.00000000E+00
