 H                                      
   1.00000000000000     
    15.0000000000000000    0.0000000000000000    0.0000000000000000
     0.0000000000000000   15.0000000000000000    0.0000000000000000
     0.0000000000000000    0.0000000000000000   15.0000000000000000
   Cl
     2
Direct
  0.5000640703778447  0.5000424370794506  0.4752120207717808
  0.4983829255193879  0.4989284440936215  0.6080887628729429
 
  0.00000000E+00  0.00000000E+00  0.00000000E+00
  0.00000000E+00  0.00000000E+00  0.00000000E+00
