 H 
 1.0000000000000000
    15.0000000000000000    0.0000000000000000    0.0000000000000000
     0.0000000000000000   15.0000000000000000    0.0000000000000000
     0.0000000000000000    0.0000000000000000   15.0000000000000000
 Cl 
 1
Cartesian
  7.4999991668209276  7.5000001216367806  7.2044863079106492
