Pd   O    H                             
   1.00000000000000     
     7.9735561598681501    1.4573289397441300    0.8102168506487960
     1.4682525439858716    9.7886822012210413   -0.3848608681814893
     1.4295724359431292   -0.6030993452720352   14.9672474195577347
   Ru   Cl
     1     2
Selective dynamics
Direct
  0.9117238933923449  0.1126929274287935  0.3512560284510807   T   T   T
  0.0125436603255241  0.2977079752581197  0.3510214529071822   T   T   T
  0.8027811429156552  0.9321060979473507  0.3515041709239413   T   T   T
 
  0.00000000E+00  0.00000000E+00  0.00000000E+00
  0.00000000E+00  0.00000000E+00  0.00000000E+00
  0.00000000E+00  0.00000000E+00  0.00000000E+00
