C3H8                                    
   15.0000000000000     
     1.0000000000000000    0.0000000000000000    0.0000000000000000
     0.0000000000000000    1.0000000000000000    0.0000000000000000
     0.0000000000000000    0.0000000000000000    1.0000000000000000
   C    H 
     2     4
Selective dynamics
Direct
  0.4185381475753437  0.5597165112652729  0.4994782164491689   T   T   T
  0.4940703846417220  0.4990153226202669  0.4920376462512339   T   T   T
  0.4149913909659262  0.6069426414343596  0.4426858810725805   T   T   T
  0.4227818664018613  0.6003007025343261  0.5607241530989088   T   T   T
  0.3539832901404408  0.5237845911121791  0.5022109167245306   T   T   T
  0.5156349202747104  0.4502402310336046  0.4428631864035747   T   T   T
 
  0.00000000E+00  0.00000000E+00  0.00000000E+00
  0.00000000E+00  0.00000000E+00  0.00000000E+00
  0.00000000E+00  0.00000000E+00  0.00000000E+00
  0.00000000E+00  0.00000000E+00  0.00000000E+00
  0.00000000E+00  0.00000000E+00  0.00000000E+00
  0.00000000E+00  0.00000000E+00  0.00000000E+00
