 H  O                                   
   1.00000000000000     
     7.6035666466000000    0.0000000000000000    0.0000000000000000
    -3.8017833233000000    6.5848818752999998    0.0000000000000000
     0.0000000000000000    0.0000000000000000    7.1429619788999998
   H    O 
    23    13
Direct
  0.3443934745308698  0.3074392822387239  0.7810582825468125
  0.6583066464893989  0.0089224339912140  0.6905033320987042
  0.0011052470327897  0.6650072957008751  0.6929308076873979
  0.7059616785024717  0.6967615722913691  0.1831964372978995
  0.3486192996059073 -0.0143813554377340  0.1994009760003708
  0.9976356150659377  0.3254896080588365  0.1779247973775117
  0.5150732920399144  0.0050038602772981  0.5179889591316599
  0.9593093552757944  0.5474006122652373  0.4939046376146801
  0.5859457012419609  0.5478563268214313  0.0112365673794096
  0.4904541300435553 -0.0064803408645295  0.0200113099909344
  0.0369471767491684  0.4499416762593190 -0.0118816989608279
  0.7901049150300392  0.7047320216977354  0.4655483669317511
  0.2981429793832575  0.1087590863601303  0.4693612859254652
  0.8342560673967642  0.2183131560655624  0.4546713089661333
  0.6684047650321865  0.8256283343715985  0.4474910349826879
  0.0783783256441161  0.3727324572092133  0.4565760005853493
  0.1779166344126211  0.8649987808506666  0.4730810850082584
  0.2338227484370635  0.3195999034630100  0.0041197303995548
  0.6972582382421565  0.8726251520685970  0.9579990470147111
  0.1542425041959835  0.7793237772042543  0.9685632750776884
  0.3605998727109486  0.1891306241222814  0.0044921363240059
  0.9099055018865002  0.6629059592702367  0.9731918061424507
  0.8196448323971003  0.1178759882154650  0.9611617395325144
  0.3069009797274692  0.2971972271942269  0.6238263687923045
  0.6498641023325601  0.0200439413325522  0.5510360181700836
  0.9819998412858832  0.6761905419638786  0.5546677602485958
  0.7116768560496624  0.6772486690730911  0.0402737863658746
  0.3615149772488112 -0.0086483097718844  0.0588449227013117
  0.0325082028042110  0.3245787381008089  0.0409229097620243
  0.6863414601916711  0.7163288189690732  0.3901576252569737
  0.3053574270987203 -0.0102251680624667  0.4237388015173809
  0.9486176114334787  0.3431894725614920  0.3925037784694987
  0.3619169568624552  0.3183150785694279  0.9592721124023090
  0.6890190774054485  0.9964733370028688  0.9197594128299333
  0.0302164670324943  0.6564587403178683  0.9200440691409899
  0.2736784145439378  0.4525474783999729  0.5963355744366030
 
  0.00000000E+00  0.00000000E+00  0.00000000E+00
  0.00000000E+00  0.00000000E+00  0.00000000E+00
  0.00000000E+00  0.00000000E+00  0.00000000E+00
  0.00000000E+00  0.00000000E+00  0.00000000E+00
  0.00000000E+00  0.00000000E+00  0.00000000E+00
  0.00000000E+00  0.00000000E+00  0.00000000E+00
  0.00000000E+00  0.00000000E+00  0.00000000E+00
  0.00000000E+00  0.00000000E+00  0.00000000E+00
  0.00000000E+00  0.00000000E+00  0.00000000E+00
  0.00000000E+00  0.00000000E+00  0.00000000E+00
  0.00000000E+00  0.00000000E+00  0.00000000E+00
  0.00000000E+00  0.00000000E+00  0.00000000E+00
  0.00000000E+00  0.00000000E+00  0.00000000E+00
  0.00000000E+00  0.00000000E+00  0.00000000E+00
  0.00000000E+00  0.00000000E+00  0.00000000E+00
  0.00000000E+00  0.00000000E+00  0.00000000E+00
  0.00000000E+00  0.00000000E+00  0.00000000E+00
  0.00000000E+00  0.00000000E+00  0.00000000E+00
  0.00000000E+00  0.00000000E+00  0.00000000E+00
  0.00000000E+00  0.00000000E+00  0.00000000E+00
  0.00000000E+00  0.00000000E+00  0.00000000E+00
  0.00000000E+00  0.00000000E+00  0.00000000E+00
  0.00000000E+00  0.00000000E+00  0.00000000E+00
  0.00000000E+00  0.00000000E+00  0.00000000E+00
  0.00000000E+00  0.00000000E+00  0.00000000E+00
  0.00000000E+00  0.00000000E+00  0.00000000E+00
  0.00000000E+00  0.00000000E+00  0.00000000E+00
  0.00000000E+00  0.00000000E+00  0.00000000E+00
  0.00000000E+00  0.00000000E+00  0.00000000E+00
  0.00000000E+00  0.00000000E+00  0.00000000E+00
  0.00000000E+00  0.00000000E+00  0.00000000E+00
  0.00000000E+00  0.00000000E+00  0.00000000E+00
  0.00000000E+00  0.00000000E+00  0.00000000E+00
  0.00000000E+00  0.00000000E+00  0.00000000E+00
  0.00000000E+00  0.00000000E+00  0.00000000E+00
  0.00000000E+00  0.00000000E+00  0.00000000E+00
