 H  O 
 1.0000000000000000
     7.6035666466000000    0.0000000000000000    0.0000000000000000
    -3.8017833233000000    6.5848818752999998    0.0000000000000000
     0.0000000000000000    0.0000000000000000    7.1429619788999998
  H O
  23  13
Cartesian
  2.0061716008787318  2.2931972025017604  4.8978158664232287
  4.9630768394644935 -0.1656773540135565  4.9455632463612176
  4.9889364592860037  4.5970457710620973  4.8679692385957765
  2.5842383073897026  4.2579726568986782  1.2175530346426164
  2.7263733083328274  0.3487322224758533  1.3675347873990984
  6.2553490427425000  2.1117697203817931  1.5495678311457559
  3.8403460510898149  0.0240087617057057  3.8301747246382307
  5.2304241961156164  3.7056085376161101  3.5435971342350934
  2.4181656511945087  3.5936445294165269 -0.1525076010792265
  3.8987326162568450 -0.0715549567151729  0.3008159233071787
  6.1532283587793684  2.8311679627536006  0.0714225409894278
  3.1562523337308122  4.3702949763680650  3.2261690015853977
  1.7511315110379775  0.8057068893390782  3.4269731703678517
  5.5980518527842467  1.3669889850079100  3.7172693498896034
  1.7578940916344183  5.1010429455060580  3.3163772940194303
 -0.6359507400478107  2.2766563475478314  3.6085474477879078
 -2.0184450120657922  5.7882605584275169  3.1930107318597738
  0.5213355057782144  2.1182884226106489  7.1408305589672763
  2.0340663792770064  5.5851117445628287  6.9337401233809475
 -1.8888892309986567  5.2620357548966670  6.9468972793764578
  2.0478135424346382  1.4221818512490361  6.9390403171703134
  4.3976058114222631  4.4314945432190544  6.7341032881593454
  5.8657479314765277  0.6204600893107695  7.0474148471610203
  1.2630429063692046  2.2552851344792115  4.2042303561939720
  4.8096739980681322 -0.0220887253768992  3.9931609007664846
  4.7600705116730362  4.5181946988283679  3.8818547301617397
  2.9172350000857952  4.3457494088223205  0.2533171260550305
  2.8765016192394479  0.0574456366047770  0.3871983320168742
  6.4553744791384071  2.0405122142992531  0.5792481624827589
  2.2283331652846501  4.3227787194569141  2.8211008460912619
  2.2689441222991662  0.0622494015156422  2.9621434522253591
 -1.5685337052084640  2.2171602025454451  3.2854272582479274
  1.4257475615265731  2.1963263377020898  6.7476971309905327
  5.2945670846699100 -0.1730311235903341  6.6739364679915738
  5.3275576043232649  4.5166368015687430  6.4046904224175005
  0.6743639159450530  3.3695261900890028  3.8803377614602899
