oxygen                                  
   1.00000000000000     
    15.0000000000000000    0.0000000000000000    0.0000000000000000
     0.0000000000000000   15.0000000000000000    0.0000000000000000
     0.0000000000000000    0.0000000000000000   15.0000000000000000
   O 
     2
Direct
  0.4999999993475654  0.5000000008800001  0.4657974755072516
  0.5000000006524346  0.4999999991199999  0.5480691911594135
 
  0.00000000E+00  0.00000000E+00  0.00000000E+00
  0.00000000E+00  0.00000000E+00  0.00000000E+00
