 C  O                                   
   1.00000000000000     
    14.9980971388996132   -0.0000099470572583   -0.0000000009617059
    -0.0000099470996287   14.9981479779719287    0.0000000041059333
    -0.0000000008870925    0.0000000042794599   14.9842158832882664
   C    O 
     1     2
Direct
 -0.0000000004093480 -0.0000000002819496 -0.0000000016832086
 -0.0000000004486638 -0.0000000002368975  0.0785061036731161
  0.0000000008580118  0.0000000005188471  0.9214938980100925
 
  0.00000000E+00  0.00000000E+00  0.00000000E+00
  0.00000000E+00  0.00000000E+00  0.00000000E+00
  0.00000000E+00  0.00000000E+00  0.00000000E+00
