Pd   O    H                             
   1.00000000000000     
     9.2232551090623733   -0.0021236655535528    0.0354092812579770
    -0.0026079122086559    9.2661482818932939    0.0524492008129340
     0.1161534337016382    0.1052338397203815   15.6023844023325520
   Ru   Cl
     1     3
Selective dynamics
Direct
  0.9758538171948814  0.0768678638579843  0.3314771147042848   T   T   T
  0.9738081419083429  0.3043895089465707  0.3609353344041679   T   T   T
  0.7773867375302999  0.9612496278297087  0.3613692031737514   T   T   T
  0.1746216354544217  0.9640136425824082  0.3614484862698362   T   T   T
 
  0.00000000E+00  0.00000000E+00  0.00000000E+00
  0.00000000E+00  0.00000000E+00  0.00000000E+00
  0.00000000E+00  0.00000000E+00  0.00000000E+00
  0.00000000E+00  0.00000000E+00  0.00000000E+00
