Pd  O  N                                
   1.00000000000000     
     8.3580026627000006    0.0000000000000000    0.0000000000000000
    -4.1790013313000003    7.2382426308000003    0.0000000000000000
     0.0000000000000000    0.0000000000000000   25.0000000000000000
   O    N 
     3     1
Selective dynamics
Direct
  0.3745813510638278  0.3669669242857928  0.3793728304915106   T   T   T
  0.5041192678483009  0.4969936851429471  0.4545154054612933   T   T   T
  0.6296502085175439  0.6309826153618016  0.3794118307957119   T   T   T
  0.5027853015958863  0.4983097898630696  0.4044077680820244   T   T   T
 
  0.00000000E+00  0.00000000E+00  0.00000000E+00
  0.00000000E+00  0.00000000E+00  0.00000000E+00
  0.00000000E+00  0.00000000E+00  0.00000000E+00
  0.00000000E+00  0.00000000E+00  0.00000000E+00
