C3H8                                    
   15.0000000000000     
     1.0000000000000000    0.0000000000000000    0.0000000000000000
     0.0000000000000000    1.0000000000000000    0.0000000000000000
     0.0000000000000000    0.0000000000000000    1.0000000000000000
   C    H 
     3     6
Selective dynamics
Direct
  0.4159951351671093  0.5578352471187507  0.4999999922777193   T   T   T
  0.5006564617470720  0.5038575817865966  0.4999999973785088   T   T   T
  0.5829464817062415  0.5380659232351960  0.5000000161020645   T   T   T
  0.4120709989390213  0.6014128501150501  0.4410168937092541   T   T   T
  0.4120709917100260  0.6014128564263299  0.5589830852045289   T   T   T
  0.3566070451997434  0.5150411471295147  0.4999999891627384   T   T   T
  0.4932150417089569  0.4311798394427621  0.4999999898809949   T   T   T
  0.5944708693537405  0.6101082814077033  0.5000000213201659   T   T   T
  0.6419669744680931  0.4954862733381015  0.5000000149640252   T   T   T
 
  0.00000000E+00  0.00000000E+00  0.00000000E+00
  0.00000000E+00  0.00000000E+00  0.00000000E+00
  0.00000000E+00  0.00000000E+00  0.00000000E+00
  0.00000000E+00  0.00000000E+00  0.00000000E+00
  0.00000000E+00  0.00000000E+00  0.00000000E+00
  0.00000000E+00  0.00000000E+00  0.00000000E+00
  0.00000000E+00  0.00000000E+00  0.00000000E+00
  0.00000000E+00  0.00000000E+00  0.00000000E+00
  0.00000000E+00  0.00000000E+00  0.00000000E+00
