 H  O                                   
   1.00000000000000     
     7.6035666466000000    0.0000000000000000    0.0000000000000000
    -3.8017833233000000    6.5848818752999998    0.0000000000000000
     0.0000000000000000    0.0000000000000000    7.1429619788999998
   H    O 
    22    13
Direct
  0.6569590612622614  0.0019612045920656  0.7038727645927203
 -0.0072278767196701  0.6706734869012522  0.7059005214550954
  0.6832357479445893  0.6791726083632015  0.1658206176350379
  0.3233196346710099 -0.0369307578108224  0.2001572132806297
  0.9746130073291014  0.3086392483436057  0.1967585131231926
  0.5317160032319945  0.0174810610569215  0.5248448581733883
  0.9834686888846158  0.5628461546951498  0.5100574174690609
  0.5240287415340799  0.5002732023289349  0.0149315661045177
  0.4439577882391103  0.9519002676042229  0.0175310536349868
 -0.0220567358667019  0.4187989687985112  0.0061034358629571
  0.8554739276877318  0.7660121028612307  0.4372281980358965
  0.3185748454955521  0.1235464554455487  0.4701213881541855
  0.8498089636831092  0.2237671342137806  0.4934587985078903
  0.7317235048019102  0.8831136579793489  0.4270502744487686
  0.0926810616744971  0.3602530233976262  0.4972275829575360
  0.1942935390298386  0.8799582880596966  0.4950938283765749
  0.1928220681601977  0.2873037508816677 -0.0076575476279568
  0.6542074713970691  0.8371650931249193  0.9563923864209803
  0.1053354692640353  0.7473940826586334  0.9825379991795750
  0.3139979473477811  0.1650112817947406 -0.0110631688574044
  0.8574977623578963  0.6290969931751845  0.9682612379471446
  0.7751371399513847  0.0838974864870768  0.9807562054894652
  0.4891384857901668  0.4442287033079779  0.5458558465058719
  0.6635311208156409  0.0284319924510358  0.5638894628604915
  0.0002423840498220  0.6917826878744113  0.5646929558790030
  0.6558919203718798  0.6336675908387618  0.0309342214835577
  0.3155817457020407 -0.0536151850795050  0.0617248613157520
 -0.0246368765721738  0.2944045022602086  0.0583178471862899
  0.7920714340844447  0.8188119613271374  0.3487371481598127
  0.3224093965758507  0.0009185593919870  0.4386715838182231
  0.9730186635098751  0.3490063404982053  0.4358189991341908
  0.3208650627213787  0.2940413426011997  0.9504099765124028
  0.6514421180396996  0.9651174570066334  0.9235012564809507
 -0.0162561090132176  0.6276597129271537  0.9241331722665569
  0.3912022243011807  0.5252424818569542  0.5961577317003277
 
  0.00000000E+00  0.00000000E+00  0.00000000E+00
  0.00000000E+00  0.00000000E+00  0.00000000E+00
  0.00000000E+00  0.00000000E+00  0.00000000E+00
  0.00000000E+00  0.00000000E+00  0.00000000E+00
  0.00000000E+00  0.00000000E+00  0.00000000E+00
  0.00000000E+00  0.00000000E+00  0.00000000E+00
  0.00000000E+00  0.00000000E+00  0.00000000E+00
  0.00000000E+00  0.00000000E+00  0.00000000E+00
  0.00000000E+00  0.00000000E+00  0.00000000E+00
  0.00000000E+00  0.00000000E+00  0.00000000E+00
  0.00000000E+00  0.00000000E+00  0.00000000E+00
  0.00000000E+00  0.00000000E+00  0.00000000E+00
  0.00000000E+00  0.00000000E+00  0.00000000E+00
  0.00000000E+00  0.00000000E+00  0.00000000E+00
  0.00000000E+00  0.00000000E+00  0.00000000E+00
  0.00000000E+00  0.00000000E+00  0.00000000E+00
  0.00000000E+00  0.00000000E+00  0.00000000E+00
  0.00000000E+00  0.00000000E+00  0.00000000E+00
  0.00000000E+00  0.00000000E+00  0.00000000E+00
  0.00000000E+00  0.00000000E+00  0.00000000E+00
  0.00000000E+00  0.00000000E+00  0.00000000E+00
  0.00000000E+00  0.00000000E+00  0.00000000E+00
  0.00000000E+00  0.00000000E+00  0.00000000E+00
  0.00000000E+00  0.00000000E+00  0.00000000E+00
  0.00000000E+00  0.00000000E+00  0.00000000E+00
  0.00000000E+00  0.00000000E+00  0.00000000E+00
  0.00000000E+00  0.00000000E+00  0.00000000E+00
  0.00000000E+00  0.00000000E+00  0.00000000E+00
  0.00000000E+00  0.00000000E+00  0.00000000E+00
  0.00000000E+00  0.00000000E+00  0.00000000E+00
  0.00000000E+00  0.00000000E+00  0.00000000E+00
  0.00000000E+00  0.00000000E+00  0.00000000E+00
  0.00000000E+00  0.00000000E+00  0.00000000E+00
  0.00000000E+00  0.00000000E+00  0.00000000E+00
  0.00000000E+00  0.00000000E+00  0.00000000E+00
